3
40
9515
[[847,190,500,128,146,244,762,591,325,248,528,276,355,682,417,267,163,182,401, 88,786,728, 48,842,420,545,351, 32,631,755,432,287,155,745,728,673,643,396,459,982],
 [153,810,500,872,854,756,238,409,675,752,472,724,645,318,583,733,837,818,599,912,214,272,952,158,580,455,649,968,369,245,568,713,845,255,272,327,357,604,541, 18],
 [ 45, 79, 86, 82, 37, 52, 48, 34, 11, 16, 40, 91, 62, 71, 56, 43, 56, 34, 27, 95, 58, 73, 74, 52, 64, 98, 81,  8, 45, 11, 35, 92,  2, 47, 43,  9, 30, 50, 78,  5]]
[315,860,171,859, 49,171,548,971,609,521,754,874,330, 82,329,  1,147, 42,179,508,697,885,947,857, 30,980,108,614,451,812,344, 63,127,796,666,447,399,381,142,965]